74
125
87	2
86	5
85	13
84	9
83	2
82	5
81	5
80	6
79	9
78	8
77	7
76	2
75	2
74	2
73	7
72	6
71	6
70	9
68	7
67	5
66	6
65	7
64	4
63	4
62	8
61	6
60	6
59	5
58	4
57	5
56	5
55	9
54	2
53	7
52	5
51	8
50	3
49	5
48	6
47	4
46	3
45	6
44	5
43	7
42	5
41	4
40	4
39	4
38	6
37	5
36	5
35	6
34	6
33	2
32	3
31	9
30	7
29	4
28	6
27	6
26	4
25	5
24	4
23	4
22	7
20	3
19	6
18	6
17	7
16	4
15	6
14	4
13	6
12	5
